
  19    0


   0  10 2 3 4 5 6 7 8 16 17 18 
  10   4 15 14 13 12 
   9   3 12 11 10 
   6   2 10 9 
   5   1 11 
   7   1 10 
   6   1 9 
   9   1 9 
   8   1 19
   5   1 19
  10   1 19
   4   1 19
   4   1 19
  10   1 19
   3   1 19
   1   1 19
   7   1 19
   2   1 19
   0   0 
